unsat
(define-fun SC ((s (_ BitVec 4)) (t (_ BitVec 4))) Bool (bvsge s (bvand s t)))
0.04user 0.00system 0:00.05elapsed 100%CPU (0avgtext+0avgdata 27180maxresident)k
0inputs+8outputs (0major+1456minor)pagefaults 0swaps
